set M := M1 M2;

param n := 4;

param demand :=	1   4000
                2   5000
                3   3000
                4   2000;

param capacity :    1       2       3       4  :=
                M1  2000    5000    4000    1000
                M2  3000    2000    1000    1000;

param cost :    1   2   3   4 :=
            M1  3   1   2   4  
            M2  2   1   5   4;

param storage_cost := 1;
